benchmark/results/graph__10-1000-0.10-02_1/graph__10-1000-0.10-02_1_QuintonOs_Benders_aux.lp
\ This file has been generated by DOcplex
\ ENCODING=ISO-8859-1
\Problem name: Quinton Bounded Benders_auxiliary_sub

Minimize
 obj: 0.000779423227 pi_nr_a0 + 0.000839630563 pi_nr_a1
      + 0.001639555226 pi_nr_a2 + 0.000881834215 pi_nr_a3
      + 0.001831376396 pi_nr_a4 + 0.001453226723 pi_nr_a5
      + 0.001751313018 pi_nr_a6 + 0.001122411269 pi_nr_a7
      + 0.001945983969 pi_nr_a8 + 0.000845308538 pi_nr_a9 + pi_p_a0_a1
      + pi_p_a3_a6 + pi_p_a2_a8 + pi_p_a9_a5 + pi_p_a5_a8 + pi_p_a9_a4
      + 1278.641156907459 pi_d_a0_a2_proc_1
      + 1279.552890118803 pi_d_a2_a0_proc_1 + 650.874011515212 pi_d_a0_a4_proc_1
      + 627.874450378437 pi_d_a4_a0_proc_1 + 915.014224257827 pi_d_a0_a5_proc_1
      + 899.059423484915 pi_d_a5_a0_proc_1 + 1272.455160210605 pi_d_a0_a6_proc_1
      + 1294.541152368523 pi_d_a6_a0_proc_1 + 336.070597015081 pi_d_a0_a7_proc_1
      + 327.365809157764 pi_d_a7_a0_proc_1 + 14.327470524332 pi_d_a0_a8_proc_1
      - 5.426919173457 pi_d_a8_a0_proc_1 + 9.949320576195 pi_d_a0_a9_proc_1
      - 8.949320576195 pi_d_a9_a0_proc_1 + 13.550393827050 pi_d_a1_a2_proc_0
      - 3.744440853311 pi_d_a2_a1_proc_0 + 9.211173344450 pi_d_a1_a3_proc_0
      - 8.211173344450 pi_d_a3_a1_proc_0 + 654.267264567059 pi_d_a1_a4_proc_0
      + 634.984273539292 pi_d_a4_a1_proc_0 + 381.068486422496 pi_d_a1_a5_proc_0
      + 372.857865834762 pi_d_a5_a1_proc_0 + 10.207138491845 pi_d_a1_a6_proc_0
      - 9.203451070973 pi_d_a6_a1_proc_0 + 951.369118714992 pi_d_a1_a7_proc_0
      + 953.194475112164 pi_d_a7_a1_proc_0 + 1291.036954447901 pi_d_a1_a8_proc_0
      + 1268.062494201224 pi_d_a8_a1_proc_0 + 5.440726090420 pi_d_a2_a3_proc_0
      + 4.365226883319 pi_d_a3_a2_proc_0 + 1912.461910877543 pi_d_a2_a4_proc_1
      + 643.519401957632 pi_d_a2_a4_proc_0 + 1923.480598042368 pi_d_a4_a2_proc_1
      + 654.538089122457 pi_d_a4_a2_proc_0 + 2189.387292046368 pi_d_a2_a5_proc_1
      + 385.119597277365 pi_d_a2_a5_proc_0 + 2181.880402722635 pi_d_a5_a2_proc_1
      + 377.612707953632 pi_d_a5_a2_proc_0 + 2562.879878197862 pi_d_a2_a6_proc_1
      + 5.689518592473 pi_d_a2_a6_proc_0 + 2561.310481407528 pi_d_a6_a2_proc_1
      + 4.120121802138 pi_d_a6_a2_proc_0 + 1616.781977563525 pi_d_a2_a7_proc_1
      + 963.151524364419 pi_d_a2_a7_proc_0 + 1603.848475635581 pi_d_a7_a2_proc_1
      + 950.218022436475 pi_d_a7_a2_proc_0 + 1294.540396339879 pi_d_a2_a8_proc_1
      + 1295.445797962743 pi_d_a2_a8_proc_0
      + 1271.554202037257 pi_d_a8_a2_proc_1
      + 1272.459603660121 pi_d_a8_a2_proc_0
      + 1268.096371222090 pi_d_a2_a9_proc_1
      + 1290.097675804172 pi_d_a9_a2_proc_1 + 650.648159414377 pi_d_a3_a4_proc_0
      + 638.603378691974 pi_d_a4_a3_proc_0 + 380.675216707285 pi_d_a3_a5_proc_0
      + 373.251135549974 pi_d_a5_a3_proc_0 + 1.001826466067 pi_d_a3_a6_proc_0
      + 0.001860954805 pi_d_a6_a3_proc_0 + 949.442046146664 pi_d_a3_a7_proc_0
      + 955.121547680492 pi_d_a7_a3_proc_0 + 1291.011905902793 pi_d_a3_a8_proc_0
      + 1268.087542746332 pi_d_a8_a3_proc_0
      + 1548.386829336450 pi_d_a4_a5_proc_1
      + 1023.564719700059 pi_d_a4_a5_proc_0
      + 1543.435280299941 pi_d_a5_a4_proc_1
      + 1018.613170663550 pi_d_a5_a4_proc_0
      + 1928.373431107872 pi_d_a4_a6_proc_1 + 650.628656635095 pi_d_a4_a6_proc_0
      + 1916.371343364905 pi_d_a6_a4_proc_1 + 638.626568892127 pi_d_a6_a4_proc_0
      + 972.972208123358 pi_d_a4_a7_proc_1 + 1598.787340056864 pi_d_a4_a7_proc_0
      + 968.212659943136 pi_d_a7_a4_proc_1 + 1594.027791876642 pi_d_a7_a4_proc_0
      + 637.338054524361 pi_d_a4_a8_proc_1 + 1917.689041279837 pi_d_a4_a8_proc_0
      + 649.310958720163 pi_d_a8_a4_proc_1 + 1929.661945475639 pi_d_a8_a4_proc_0
      + 644.849671922165 pi_d_a4_a9_proc_1 + 633.898789971484 pi_d_a9_a4_proc_1
      + 2193.594660771132 pi_d_a5_a6_proc_1 + 380.524700449262 pi_d_a5_a6_proc_0
      + 2186.475299550738 pi_d_a6_a5_proc_1 + 373.405339228868 pi_d_a6_a5_proc_0
      + 1237.825499496450 pi_d_a5_a7_proc_1
      + 1328.315445580865 pi_d_a5_a7_proc_0
      + 1238.684554419135 pi_d_a7_a5_proc_1
      + 1329.174500503550 pi_d_a7_a5_proc_0 + 919.228838983302 pi_d_a5_a8_proc_1
      + 1664.254639889685 pi_d_a5_a8_proc_0 + 902.745360110315 pi_d_a8_a5_proc_1
      + 1647.771161016698 pi_d_a8_a5_proc_0 + 899.203294821549 pi_d_a5_a9_proc_1
      + 914.870352921193 pi_d_a9_a5_proc_1 + 1611.169247443623 pi_d_a6_a7_proc_1
      + 948.736528691651 pi_d_a6_a7_proc_0 + 1618.263471308349 pi_d_a7_a6_proc_1
      + 955.830752556377 pi_d_a7_a6_proc_0 + 1298.913421708954 pi_d_a6_a8_proc_1
      + 1291.016557778951 pi_d_a6_a8_proc_0
      + 1275.983442221049 pi_d_a8_a6_proc_1
      + 1268.086578291046 pi_d_a8_a6_proc_0
      + 1294.466830902393 pi_d_a6_a9_proc_1
      + 1272.529481676735 pi_d_a9_a6_proc_1 + 338.861753539232 pi_d_a7_a8_proc_1
      + 2234.524796015514 pi_d_a7_a8_proc_0 + 332.475203984486 pi_d_a8_a7_proc_1
      + 2228.138246460768 pi_d_a8_a7_proc_0 + 334.316113013965 pi_d_a7_a9_proc_1
      + 329.120293158880 pi_d_a9_a7_proc_1 + 3.987222400540 pi_d_a8_a9_proc_1
      + 4.913328950335 pi_d_a9_a8_proc_1 + pi_y2_a0_proc_1 + pi_y2_a1_proc_0
      + 0.996568217859 pi_y2_a2_proc_0 + 0.003431782141 pi_y2_a2_proc_1
      + pi_y2_a3_proc_0 + 0.497953414612 pi_y2_a4_proc_0
      + 0.502046585388 pi_y2_a4_proc_1 + 0.706575856486 pi_y2_a5_proc_0
      + 0.293424143514 pi_y2_a5_proc_1 + 0.999998562969 pi_y2_a6_proc_0
      + 0.000001437031 pi_y2_a6_proc_1 + 0.258159160629 pi_y2_a7_proc_0
      + 0.741840839371 pi_y2_a7_proc_1 + 0.003078936614 pi_y2_a8_proc_0
      + 0.996921063386 pi_y2_a8_proc_1 + pi_y2_a9_proc_1
Subject To
 c1: 0.000779423227 pi_nr_a0 + 0.000839630563 pi_nr_a1 + 0.001642036125 pi_nr_a2
     + 0.000881834215 pi_nr_a3 + 0.002369668246 pi_nr_a4
     + 0.001644736842 pi_nr_a5 + 0.001751313485 pi_nr_a6
     + 0.001091703057 pi_nr_a7 + 0.001949317739 pi_nr_a8
     + 0.000845308538 pi_nr_a9 + pi_p_a0_a1 + pi_p_a3_a6 + pi_p_a2_a8
     + pi_p_a9_a5 + pi_p_a5_a8 + pi_p_a9_a4 + 1272 pi_d_a0_a2_proc_1
     + 1295 pi_d_a2_a0_proc_1 + 12 pi_d_a0_a4_proc_1 - 11 pi_d_a4_a0_proc_1
     + 1295 pi_d_a0_a5_proc_1 + 1272 pi_d_a5_a0_proc_1 + 1272 pi_d_a0_a6_proc_1
     + 1295 pi_d_a6_a0_proc_1 + 12 pi_d_a0_a7_proc_1 - 11 pi_d_a7_a0_proc_1
     + 12 pi_d_a0_a8_proc_1 - 11 pi_d_a8_a0_proc_1 + 12 pi_d_a0_a9_proc_1
     - 11 pi_d_a9_a0_proc_1 + 11 pi_d_a1_a2_proc_0 - 10 pi_d_a2_a1_proc_0
     + 11 pi_d_a1_a3_proc_0 - 10 pi_d_a3_a1_proc_0 + 1295 pi_d_a1_a4_proc_0
     + 1272 pi_d_a4_a1_proc_0 + 11 pi_d_a1_a5_proc_0 - 10 pi_d_a5_a1_proc_0
     + 12 pi_d_a1_a6_proc_0 - 11 pi_d_a6_a1_proc_0 + 1272 pi_d_a1_a7_proc_0
     + 1295 pi_d_a7_a1_proc_0 + 1295 pi_d_a1_a8_proc_0 + 1272 pi_d_a8_a1_proc_0
     + pi_d_a2_a3_proc_0 + 1272 pi_d_a2_a4_proc_1 + 1272 pi_d_a2_a4_proc_0
     + 1295 pi_d_a4_a2_proc_1 + 1295 pi_d_a4_a2_proc_0 + 2567 pi_d_a2_a5_proc_1
     + pi_d_a2_a5_proc_0 + 2566 pi_d_a5_a2_proc_1 + 2567 pi_d_a2_a6_proc_1
     + pi_d_a2_a6_proc_0 + 2566 pi_d_a6_a2_proc_1 + 1295 pi_d_a2_a7_proc_1
     + 1295 pi_d_a2_a7_proc_0 + 1272 pi_d_a7_a2_proc_1 + 1272 pi_d_a7_a2_proc_0
     + 1295 pi_d_a2_a8_proc_1 + 1295 pi_d_a2_a8_proc_0 + 1272 pi_d_a8_a2_proc_1
     + 1272 pi_d_a8_a2_proc_0 + 1272 pi_d_a2_a9_proc_1 + 1295 pi_d_a9_a2_proc_1
     + 1295 pi_d_a3_a4_proc_0 + 1272 pi_d_a4_a3_proc_0 + pi_d_a3_a5_proc_0
     + pi_d_a3_a6_proc_0 + 1272 pi_d_a3_a7_proc_0 + 1295 pi_d_a7_a3_proc_0
     + 1295 pi_d_a3_a8_proc_0 + 1272 pi_d_a8_a3_proc_0 + 1295 pi_d_a4_a5_proc_1
     + 1295 pi_d_a4_a5_proc_0 + 1272 pi_d_a5_a4_proc_1 + 1272 pi_d_a5_a4_proc_0
     + 1295 pi_d_a4_a6_proc_1 + 1295 pi_d_a4_a6_proc_0 + 1272 pi_d_a6_a4_proc_1
     + 1272 pi_d_a6_a4_proc_0 + 2566 pi_d_a4_a7_proc_0 + pi_d_a7_a4_proc_1
     + 2567 pi_d_a7_a4_proc_0 + 2566 pi_d_a4_a8_proc_0 + pi_d_a8_a4_proc_1
     + 2567 pi_d_a8_a4_proc_0 + pi_d_a9_a4_proc_1 + 2567 pi_d_a5_a6_proc_1
     + pi_d_a5_a6_proc_0 + 2566 pi_d_a6_a5_proc_1 + 1272 pi_d_a5_a7_proc_1
     + 1272 pi_d_a5_a7_proc_0 + 1295 pi_d_a7_a5_proc_1 + 1295 pi_d_a7_a5_proc_0
     + 1295 pi_d_a5_a8_proc_1 + 1295 pi_d_a5_a8_proc_0 + 1272 pi_d_a8_a5_proc_1
     + 1272 pi_d_a8_a5_proc_0 + 1272 pi_d_a5_a9_proc_1 + 1295 pi_d_a9_a5_proc_1
     + 1272 pi_d_a6_a7_proc_1 + 1272 pi_d_a6_a7_proc_0 + 1295 pi_d_a7_a6_proc_1
     + 1295 pi_d_a7_a6_proc_0 + 1295 pi_d_a6_a8_proc_1 + 1295 pi_d_a6_a8_proc_0
     + 1272 pi_d_a8_a6_proc_1 + 1272 pi_d_a8_a6_proc_0 + 1295 pi_d_a6_a9_proc_1
     + 1272 pi_d_a9_a6_proc_1 + pi_d_a7_a8_proc_1 + 2567 pi_d_a7_a8_proc_0
     + 2566 pi_d_a8_a7_proc_0 + pi_d_a9_a7_proc_1 + pi_d_a9_a8_proc_1
     + pi_y2_a0_proc_1 + pi_y2_a1_proc_0 + pi_y2_a2_proc_0 + pi_y2_a3_proc_0
     + pi_y2_a4_proc_1 + pi_y2_a5_proc_0 + pi_y2_a6_proc_0 + pi_y2_a7_proc_1
     + pi_y2_a8_proc_1 + pi_y2_a9_proc_1 = 0.000231642344
 c2: pi_nr_a0 + pi_nr_a1 + pi_nr_a2 + pi_nr_a3 + pi_nr_a4 + pi_nr_a5 + pi_nr_a6
     + pi_nr_a7 + pi_nr_a8 + pi_nr_a9 - pi_y1_a0 - pi_y1_a1 - pi_y1_a2
     - pi_y1_a3 - pi_y1_a4 - pi_y1_a5 - pi_y1_a6 - pi_y1_a7 - pi_y1_a8
     - pi_y1_a9 >= 1
 c3: pi_p_a0_a1 - pi_p_a2_a0 - pi_p_a4_a0 - pi_p_a1_a0 + pi_d_a0_a2_proc_1
     - pi_d_a2_a0_proc_1 + pi_d_a0_a4_proc_1 - pi_d_a4_a0_proc_1
     + pi_d_a0_a5_proc_1 - pi_d_a5_a0_proc_1 + pi_d_a0_a6_proc_1
     - pi_d_a6_a0_proc_1 + pi_d_a0_a7_proc_1 - pi_d_a7_a0_proc_1
     + pi_d_a0_a8_proc_1 - pi_d_a8_a0_proc_1 + pi_d_a0_a9_proc_1
     - pi_d_a9_a0_proc_1 >= 0
 c4: 1283 pi_p_a0_a1 + 1283 pi_d_a0_a2_proc_1 + 1283 pi_d_a0_a4_proc_1
     + 1283 pi_d_a0_a5_proc_1 + 1283 pi_d_a0_a6_proc_1 + 1283 pi_d_a0_a7_proc_1
     + 1283 pi_d_a0_a8_proc_1 + 1283 pi_d_a0_a9_proc_1 + pi_y1_a0
     + pi_y2_a0_proc_1 >= 0
 c5: - pi_p_a0_a1 + pi_p_a1_a0 + pi_d_a1_a2_proc_0 - pi_d_a2_a1_proc_0
     + pi_d_a1_a3_proc_0 - pi_d_a3_a1_proc_0 + pi_d_a1_a4_proc_0
     - pi_d_a4_a1_proc_0 + pi_d_a1_a5_proc_0 - pi_d_a5_a1_proc_0
     + pi_d_a1_a6_proc_0 - pi_d_a6_a1_proc_0 + pi_d_a1_a7_proc_0
     - pi_d_a7_a1_proc_0 + pi_d_a1_a8_proc_0 - pi_d_a8_a1_proc_0 >= 0
 c6: 1191 pi_p_a1_a0 + 1191 pi_d_a1_a2_proc_0 + 1191 pi_d_a1_a3_proc_0
     + 1191 pi_d_a1_a4_proc_0 + 1191 pi_d_a1_a5_proc_0 + 1191 pi_d_a1_a6_proc_0
     + 1191 pi_d_a1_a7_proc_0 + 1191 pi_d_a1_a8_proc_0 + pi_y1_a1
     + pi_y2_a1_proc_0 >= 0
 c7: pi_p_a2_a0 - pi_p_a3_a2 + pi_p_a2_a8 - pi_d_a0_a2_proc_1
     + pi_d_a2_a0_proc_1 - pi_d_a1_a2_proc_0 + pi_d_a2_a1_proc_0
     + pi_d_a2_a3_proc_0 - pi_d_a3_a2_proc_0 + pi_d_a2_a4_proc_1
     + pi_d_a2_a4_proc_0 - pi_d_a4_a2_proc_1 - pi_d_a4_a2_proc_0
     + pi_d_a2_a5_proc_1 + pi_d_a2_a5_proc_0 - pi_d_a5_a2_proc_1
     - pi_d_a5_a2_proc_0 + pi_d_a2_a6_proc_1 + pi_d_a2_a6_proc_0
     - pi_d_a6_a2_proc_1 - pi_d_a6_a2_proc_0 + pi_d_a2_a7_proc_1
     + pi_d_a2_a7_proc_0 - pi_d_a7_a2_proc_1 - pi_d_a7_a2_proc_0
     + pi_d_a2_a8_proc_1 + pi_d_a2_a8_proc_0 - pi_d_a8_a2_proc_1
     - pi_d_a8_a2_proc_0 + pi_d_a2_a9_proc_1 - pi_d_a9_a2_proc_1 >= 0
 c8: 609 pi_p_a2_a0 + 609 pi_p_a2_a8 + 609 pi_d_a2_a1_proc_0
     + 609 pi_d_a2_a3_proc_0 + 609 pi_d_a2_a4_proc_0 + 609 pi_d_a2_a5_proc_0
     + 609 pi_d_a2_a6_proc_0 + 609 pi_d_a2_a7_proc_0 + 609 pi_d_a2_a8_proc_0
     + pi_y1_a2 + pi_y2_a2_proc_0 >= 0
 c9: 1088 pi_p_a2_a0 + 1088 pi_p_a2_a8 + 1088 pi_d_a2_a0_proc_1
     + 1088 pi_d_a2_a4_proc_1 + 1088 pi_d_a2_a5_proc_1 + 1088 pi_d_a2_a6_proc_1
     + 1088 pi_d_a2_a7_proc_1 + 1088 pi_d_a2_a8_proc_1 + 1088 pi_d_a2_a9_proc_1
     + pi_y1_a2 + pi_y2_a2_proc_1 >= 0
 c10: pi_p_a3_a2 - pi_p_a5_a3 + pi_p_a3_a6 - pi_d_a1_a3_proc_0
      + pi_d_a3_a1_proc_0 - pi_d_a2_a3_proc_0 + pi_d_a3_a2_proc_0
      + pi_d_a3_a4_proc_0 - pi_d_a4_a3_proc_0 + pi_d_a3_a5_proc_0
      - pi_d_a5_a3_proc_0 + pi_d_a3_a6_proc_0 - pi_d_a6_a3_proc_0
      + pi_d_a3_a7_proc_0 - pi_d_a7_a3_proc_0 + pi_d_a3_a8_proc_0
      - pi_d_a8_a3_proc_0 >= 0
 c11: 1134 pi_p_a3_a2 + 1134 pi_p_a3_a6 + 1134 pi_d_a3_a1_proc_0
      + 1134 pi_d_a3_a2_proc_0 + 1134 pi_d_a3_a4_proc_0 + 1134 pi_d_a3_a5_proc_0
      + 1134 pi_d_a3_a6_proc_0 + 1134 pi_d_a3_a7_proc_0 + 1134 pi_d_a3_a8_proc_0
      + pi_y1_a3 + pi_y2_a3_proc_0 >= 0
 c12: pi_p_a4_a0 + pi_p_a4_a7 - pi_p_a6_a4 - pi_p_a9_a4 - pi_d_a0_a4_proc_1
      + pi_d_a4_a0_proc_1 - pi_d_a1_a4_proc_0 + pi_d_a4_a1_proc_0
      - pi_d_a2_a4_proc_1 - pi_d_a2_a4_proc_0 + pi_d_a4_a2_proc_1
      + pi_d_a4_a2_proc_0 - pi_d_a3_a4_proc_0 + pi_d_a4_a3_proc_0
      + pi_d_a4_a5_proc_1 + pi_d_a4_a5_proc_0 - pi_d_a5_a4_proc_1
      - pi_d_a5_a4_proc_0 + pi_d_a4_a6_proc_1 + pi_d_a4_a6_proc_0
      - pi_d_a6_a4_proc_1 - pi_d_a6_a4_proc_0 + pi_d_a4_a7_proc_1
      + pi_d_a4_a7_proc_0 - pi_d_a7_a4_proc_1 - pi_d_a7_a4_proc_0
      + pi_d_a4_a8_proc_1 + pi_d_a4_a8_proc_0 - pi_d_a8_a4_proc_1
      - pi_d_a8_a4_proc_0 + pi_d_a4_a9_proc_1 - pi_d_a9_a4_proc_1 >= 0
 c13: 776 pi_p_a4_a0 + 776 pi_p_a4_a7 + 776 pi_d_a4_a1_proc_0
      + 776 pi_d_a4_a2_proc_0 + 776 pi_d_a4_a3_proc_0 + 776 pi_d_a4_a5_proc_0
      + 776 pi_d_a4_a6_proc_0 + 776 pi_d_a4_a7_proc_0 + 776 pi_d_a4_a8_proc_0
      + pi_y1_a4 + pi_y2_a4_proc_0 >= 0
 c14: 422 pi_p_a4_a0 + 422 pi_p_a4_a7 + 422 pi_d_a4_a0_proc_1
      + 422 pi_d_a4_a2_proc_1 + 422 pi_d_a4_a5_proc_1 + 422 pi_d_a4_a6_proc_1
      + 422 pi_d_a4_a7_proc_1 + 422 pi_d_a4_a8_proc_1 + 422 pi_d_a4_a9_proc_1
      + pi_y1_a4 + pi_y2_a4_proc_1 >= 0
 c15: pi_p_a5_a3 - pi_p_a9_a5 - pi_p_a8_a5 + pi_p_a5_a8 - pi_d_a0_a5_proc_1
      + pi_d_a5_a0_proc_1 - pi_d_a1_a5_proc_0 + pi_d_a5_a1_proc_0
      - pi_d_a2_a5_proc_1 - pi_d_a2_a5_proc_0 + pi_d_a5_a2_proc_1
      + pi_d_a5_a2_proc_0 - pi_d_a3_a5_proc_0 + pi_d_a5_a3_proc_0
      - pi_d_a4_a5_proc_1 - pi_d_a4_a5_proc_0 + pi_d_a5_a4_proc_1
      + pi_d_a5_a4_proc_0 + pi_d_a5_a6_proc_1 + pi_d_a5_a6_proc_0
      - pi_d_a6_a5_proc_1 - pi_d_a6_a5_proc_0 + pi_d_a5_a7_proc_1
      + pi_d_a5_a7_proc_0 - pi_d_a7_a5_proc_1 - pi_d_a7_a5_proc_0
      + pi_d_a5_a8_proc_1 + pi_d_a5_a8_proc_0 - pi_d_a8_a5_proc_1
      - pi_d_a8_a5_proc_0 + pi_d_a5_a9_proc_1 - pi_d_a9_a5_proc_1 >= 0
 c16: 608 pi_p_a5_a3 + 608 pi_p_a5_a8 + 608 pi_d_a5_a1_proc_0
      + 608 pi_d_a5_a2_proc_0 + 608 pi_d_a5_a3_proc_0 + 608 pi_d_a5_a4_proc_0
      + 608 pi_d_a5_a6_proc_0 + 608 pi_d_a5_a7_proc_0 + 608 pi_d_a5_a8_proc_0
      + pi_y1_a5 + pi_y2_a5_proc_0 >= 0
 c17: 1008 pi_p_a5_a3 + 1008 pi_p_a5_a8 + 1008 pi_d_a5_a0_proc_1
      + 1008 pi_d_a5_a2_proc_1 + 1008 pi_d_a5_a4_proc_1 + 1008 pi_d_a5_a6_proc_1
      + 1008 pi_d_a5_a7_proc_1 + 1008 pi_d_a5_a8_proc_1 + 1008 pi_d_a5_a9_proc_1
      + pi_y1_a5 + pi_y2_a5_proc_1 >= 0
 c18: - pi_p_a3_a6 + pi_p_a6_a4 - pi_d_a0_a6_proc_1 + pi_d_a6_a0_proc_1
      - pi_d_a1_a6_proc_0 + pi_d_a6_a1_proc_0 - pi_d_a2_a6_proc_1
      - pi_d_a2_a6_proc_0 + pi_d_a6_a2_proc_1 + pi_d_a6_a2_proc_0
      - pi_d_a3_a6_proc_0 + pi_d_a6_a3_proc_0 - pi_d_a4_a6_proc_1
      - pi_d_a4_a6_proc_0 + pi_d_a6_a4_proc_1 + pi_d_a6_a4_proc_0
      - pi_d_a5_a6_proc_1 - pi_d_a5_a6_proc_0 + pi_d_a6_a5_proc_1
      + pi_d_a6_a5_proc_0 + pi_d_a6_a7_proc_1 + pi_d_a6_a7_proc_0
      - pi_d_a7_a6_proc_1 - pi_d_a7_a6_proc_0 + pi_d_a6_a8_proc_1
      + pi_d_a6_a8_proc_0 - pi_d_a8_a6_proc_1 - pi_d_a8_a6_proc_0
      + pi_d_a6_a9_proc_1 - pi_d_a9_a6_proc_1 >= 0
 c19: 571 pi_p_a6_a4 + 571 pi_d_a6_a1_proc_0 + 571 pi_d_a6_a2_proc_0
      + 571 pi_d_a6_a3_proc_0 + 571 pi_d_a6_a4_proc_0 + 571 pi_d_a6_a5_proc_0
      + 571 pi_d_a6_a7_proc_0 + 571 pi_d_a6_a8_proc_0 + pi_y1_a6
      + pi_y2_a6_proc_0 >= 0
 c20: 701 pi_p_a6_a4 + 701 pi_d_a6_a0_proc_1 + 701 pi_d_a6_a2_proc_1
      + 701 pi_d_a6_a4_proc_1 + 701 pi_d_a6_a5_proc_1 + 701 pi_d_a6_a7_proc_1
      + 701 pi_d_a6_a8_proc_1 + 701 pi_d_a6_a9_proc_1 + pi_y1_a6
      + pi_y2_a6_proc_1 >= 0
 c21: - pi_p_a4_a7 + pi_p_a7_a9 - pi_d_a0_a7_proc_1 + pi_d_a7_a0_proc_1
      - pi_d_a1_a7_proc_0 + pi_d_a7_a1_proc_0 - pi_d_a2_a7_proc_1
      - pi_d_a2_a7_proc_0 + pi_d_a7_a2_proc_1 + pi_d_a7_a2_proc_0
      - pi_d_a3_a7_proc_0 + pi_d_a7_a3_proc_0 - pi_d_a4_a7_proc_1
      - pi_d_a4_a7_proc_0 + pi_d_a7_a4_proc_1 + pi_d_a7_a4_proc_0
      - pi_d_a5_a7_proc_1 - pi_d_a5_a7_proc_0 + pi_d_a7_a5_proc_1
      + pi_d_a7_a5_proc_0 - pi_d_a6_a7_proc_1 - pi_d_a6_a7_proc_0
      + pi_d_a7_a6_proc_1 + pi_d_a7_a6_proc_0 + pi_d_a7_a8_proc_1
      + pi_d_a7_a8_proc_0 - pi_d_a8_a7_proc_1 - pi_d_a8_a7_proc_0
      + pi_d_a7_a9_proc_1 - pi_d_a9_a7_proc_1 >= 0
 c22: 826 pi_p_a7_a9 + 826 pi_d_a7_a1_proc_0 + 826 pi_d_a7_a2_proc_0
      + 826 pi_d_a7_a3_proc_0 + 826 pi_d_a7_a4_proc_0 + 826 pi_d_a7_a5_proc_0
      + 826 pi_d_a7_a6_proc_0 + 826 pi_d_a7_a8_proc_0 + pi_y1_a7
      + pi_y2_a7_proc_0 >= 0
 c23: 916 pi_p_a7_a9 + 916 pi_d_a7_a0_proc_1 + 916 pi_d_a7_a2_proc_1
      + 916 pi_d_a7_a4_proc_1 + 916 pi_d_a7_a5_proc_1 + 916 pi_d_a7_a6_proc_1
      + 916 pi_d_a7_a8_proc_1 + 916 pi_d_a7_a9_proc_1 + pi_y1_a7
      + pi_y2_a7_proc_1 >= 0
 c24: - pi_p_a2_a8 + pi_p_a8_a5 - pi_p_a5_a8 - pi_d_a0_a8_proc_1
      + pi_d_a8_a0_proc_1 - pi_d_a1_a8_proc_0 + pi_d_a8_a1_proc_0
      - pi_d_a2_a8_proc_1 - pi_d_a2_a8_proc_0 + pi_d_a8_a2_proc_1
      + pi_d_a8_a2_proc_0 - pi_d_a3_a8_proc_0 + pi_d_a8_a3_proc_0
      - pi_d_a4_a8_proc_1 - pi_d_a4_a8_proc_0 + pi_d_a8_a4_proc_1
      + pi_d_a8_a4_proc_0 - pi_d_a5_a8_proc_1 - pi_d_a5_a8_proc_0
      + pi_d_a8_a5_proc_1 + pi_d_a8_a5_proc_0 - pi_d_a6_a8_proc_1
      - pi_d_a6_a8_proc_0 + pi_d_a8_a6_proc_1 + pi_d_a8_a6_proc_0
      - pi_d_a7_a8_proc_1 - pi_d_a7_a8_proc_0 + pi_d_a8_a7_proc_1
      + pi_d_a8_a7_proc_0 + pi_d_a8_a9_proc_1 - pi_d_a9_a8_proc_1 >= 0
 c25: 1154 pi_p_a8_a5 + 1154 pi_d_a8_a1_proc_0 + 1154 pi_d_a8_a2_proc_0
      + 1154 pi_d_a8_a3_proc_0 + 1154 pi_d_a8_a4_proc_0 + 1154 pi_d_a8_a5_proc_0
      + 1154 pi_d_a8_a6_proc_0 + 1154 pi_d_a8_a7_proc_0 + pi_y1_a8
      + pi_y2_a8_proc_0 >= 0
 c26: 513 pi_p_a8_a5 + 513 pi_d_a8_a0_proc_1 + 513 pi_d_a8_a2_proc_1
      + 513 pi_d_a8_a4_proc_1 + 513 pi_d_a8_a5_proc_1 + 513 pi_d_a8_a6_proc_1
      + 513 pi_d_a8_a7_proc_1 + 513 pi_d_a8_a9_proc_1 + pi_y1_a8
      + pi_y2_a8_proc_1 >= 0
 c27: pi_p_a9_a5 - pi_p_a7_a9 + pi_p_a9_a4 - pi_d_a0_a9_proc_1
      + pi_d_a9_a0_proc_1 - pi_d_a2_a9_proc_1 + pi_d_a9_a2_proc_1
      - pi_d_a4_a9_proc_1 + pi_d_a9_a4_proc_1 - pi_d_a5_a9_proc_1
      + pi_d_a9_a5_proc_1 - pi_d_a6_a9_proc_1 + pi_d_a9_a6_proc_1
      - pi_d_a7_a9_proc_1 + pi_d_a9_a7_proc_1 - pi_d_a8_a9_proc_1
      + pi_d_a9_a8_proc_1 >= 0
 c28: 1183 pi_p_a9_a5 + 1183 pi_p_a9_a4 + 1183 pi_d_a9_a0_proc_1
      + 1183 pi_d_a9_a2_proc_1 + 1183 pi_d_a9_a4_proc_1 + 1183 pi_d_a9_a5_proc_1
      + 1183 pi_d_a9_a6_proc_1 + 1183 pi_d_a9_a7_proc_1 + 1183 pi_d_a9_a8_proc_1
      + pi_y1_a9 + pi_y2_a9_proc_1 >= 0

Bounds
       pi_y1_a0 Free
       pi_y1_a1 Free
       pi_y1_a2 Free
       pi_y1_a3 Free
       pi_y1_a4 Free
       pi_y1_a5 Free
       pi_y1_a6 Free
       pi_y1_a7 Free
       pi_y1_a8 Free
       pi_y1_a9 Free
End
